60

 0  30  40  50  60  60  10  10  14  32  32  41  41  51  51  51  61  28  28  28  36  45  63  30  32  32  32  36  42  42  42  42  58  67  67  41  45  45  50  57  64  64  72  72  72  50  50  54  54  58  64  60  60  60  63  67  67  78  78  85  
30   0  10  20  30  30  32  32  22  10  10  14  14  22  22  22  32  22  22  22  20  22  36  42  36  36  36  32  30  30  30  30  36  42  42  45  41  41  40  41  45  45  50  50  50  58  58  51  51  50  51  67  67  67  61  60  60  63  63  67  
40  10   0  10  20  20  41  41  32  14  14  10  10  14  14  14  22  28  28  28  22  20  28  50  42  42  42  36  32  32  32  32  32  36  36  50  45  45  41  40  41  41  45  45  45  64  64  54  54  51  50  72  72  72  63  61  61  61  61  63  
50  20  10   0  10  10  51  51  41  22  22  14  14  10  10  10  14  36  36  36  28  22  22  58  50  50  50  42  36  36  36  36  30  32  32  57  50  50  45  41  40  40  41  41  41  71  71  58  58  54  51  78  78  78  67  63  63  60  60  61  
60  30  20  10   0   0  61  61  51  32  32  22  22  14  14  14  10  45  45  45  36  28  20  67  58  58  58  50  42  42  42  42  32  30  30  64  57  57  50  45  41  41  40  40  40  78  78  64  64  58  54  85  85  85  72  67  67  61  61  60  
60  30  20  10   0   0  61  61  51  32  32  22  22  14  14  14  10  45  45  45  36  28  20  67  58  58  58  50  42  42  42  42  32  30  30  64  57  57  50  45  41  41  40  40  40  78  78  64  64  58  54  85  85  85  72  67  67  61  61  60  
10  32  41  51  61  61   0   0  10  30  30  40  40  50  50  50  60  22  22  22  32  41  61  20  22  22  22  28  36  36  36  36  54  63  63  32  36  36  42  50  58  58  67  67  67  40  40  45  45  50  57  50  50  50  54  58  58  71  71  78  
10  32  41  51  61  61   0   0  10  30  30  40  40  50  50  50  60  22  22  22  32  41  61  20  22  22  22  28  36  36  36  36  54  63  63  32  36  36  42  50  58  58  67  67  67  40  40  45  45  50  57  50  50  50  54  58  58  71  71  78  
14  22  32  41  51  51  10  10   0  20  20  30  30  40  40  40  50  14  14  14  22  32  51  22  20  20  20  22  28  28  28  28  45  54  54  30  32  32  36  42  50  50  58  58  58  41  41  41  41  45  50  51  51  51  51  54  54  64  64  71  
32  10  14  22  32  32  30  30  20   0   0  10  10  20  20  20  30  14  14  14  10  14  32  36  28  28  28  22  20  20  20  20  28  36  36  36  32  32  30  32  36  36  42  42  42  50  50  41  41  40  41  58  58  58  51  50  50  54  54  58  
32  10  14  22  32  32  30  30  20   0   0  10  10  20  20  20  30  14  14  14  10  14  32  36  28  28  28  22  20  20  20  20  28  36  36  36  32  32  30  32  36  36  42  42  42  50  50  41  41  40  41  58  58  58  51  50  50  54  54  58  
41  14  10  14  22  22  40  40  30  10  10   0   0  10  10  10  20  22  22  22  14  10  22  45  36  36  36  28  22  22  22  22  22  28  28  42  36  36  32  30  32  32  36  36  36  57  57  45  45  41  40  64  64  64  54  51  51  51  51  54  
41  14  10  14  22  22  40  40  30  10  10   0   0  10  10  10  20  22  22  22  14  10  22  45  36  36  36  28  22  22  22  22  22  28  28  42  36  36  32  30  32  32  36  36  36  57  57  45  45  41  40  64  64  64  54  51  51  51  51  54  
51  22  14  10  14  14  50  50  40  20  20  10  10   0   0   0  10  32  32  32  22  14  14  54  45  45  45  36  28  28  28  28  20  22  22  50  42  42  36  32  30  30  32  32  32  64  64  50  50  45  41  71  71  71  58  54  54  50  50  51  
51  22  14  10  14  14  50  50  40  20  20  10  10   0   0   0  10  32  32  32  22  14  14  54  45  45  45  36  28  28  28  28  20  22  22  50  42  42  36  32  30  30  32  32  32  64  64  50  50  45  41  71  71  71  58  54  54  50  50  51  
51  22  14  10  14  14  50  50  40  20  20  10  10   0   0   0  10  32  32  32  22  14  14  54  45  45  45  36  28  28  28  28  20  22  22  50  42  42  36  32  30  30  32  32  32  64  64  50  50  45  41  71  71  71  58  54  54  50  50  51  
61  32  22  14  10  10  60  60  50  30  30  20  20  10  10  10   0  41  41  41  32  22  10  63  54  54  54  45  36  36  36  36  22  20  20  58  50  50  42  36  32  32  30  30  30  72  72  57  57  50  45  78  78  78  64  58  58  51  51  50  
28  22  28  36  45  45  22  22  14  14  14  22  22  32  32  32  41   0   0   0  10  20  40  22  14  14  14  10  14  14  14  14  32  41  41  22  20  20  22  28  36  36  45  45  45  36  36  30  30  32  36  45  45  45  40  41  41  50  50  57  
28  22  28  36  45  45  22  22  14  14  14  22  22  32  32  32  41   0   0   0  10  20  40  22  14  14  14  10  14  14  14  14  32  41  41  22  20  20  22  28  36  36  45  45  45  36  36  30  30  32  36  45  45  45  40  41  41  50  50  57  
28  22  28  36  45  45  22  22  14  14  14  22  22  32  32  32  41   0   0   0  10  20  40  22  14  14  14  10  14  14  14  14  32  41  41  22  20  20  22  28  36  36  45  45  45  36  36  30  30  32  36  45  45  45  40  41  41  50  50  57  
36  20  22  28  36  36  32  32  22  10  10  14  14  22  22  22  32  10  10  10   0  10  30  32  22  22  22  14  10  10  10  10  22  32  32  28  22  22  20  22  28  28  36  36  36  42  42  32  32  30  32  50  50  50  41  40  40  45  45  50  
45  22  20  22  28  28  41  41  32  14  14  10  10  14  14  14  22  20  20  20  10   0  20  41  32  32  32  22  14  14  14  14  14  22  22  36  28  28  22  20  22  22  28  28  28  50  50  36  36  32  30  57  57  57  45  41  41  41  41  45  
63  36  28  22  20  20  61  61  51  32  32  22  22  14  14  14  10  40  40  40  30  20   0  61  51  51  51  41  32  32  32  32  14  10  10  54  45  45  36  28  22  22  20  20  20  67  67  50  50  42  36  72  72  72  57  50  50  41  41  40  
30  42  50  58  67  67  20  20  22  36  36  45  45  54  54  54  63  22  22  22  32  41  61   0  10  10  10  20  30  30  30  30  50  60  60  14  22  22  32  41  51  51  61  61  61  20  20  28  28  36  45  30  30  30  36  42  42  58  58  67  
32  36  42  50  58  58  22  22  20  28  28  36  36  45  45  45  54  14  14  14  22  32  51  10   0   0   0  10  20  20  20  20  40  50  50  10  14  14  22  32  41  41  51  51  51  22  22  22  22  28  36  32  32  32  32  36  36  50  50  58  
32  36  42  50  58  58  22  22  20  28  28  36  36  45  45  45  54  14  14  14  22  32  51  10   0   0   0  10  20  20  20  20  40  50  50  10  14  14  22  32  41  41  51  51  51  22  22  22  22  28  36  32  32  32  32  36  36  50  50  58  
32  36  42  50  58  58  22  22  20  28  28  36  36  45  45  45  54  14  14  14  22  32  51  10   0   0   0  10  20  20  20  20  40  50  50  10  14  14  22  32  41  41  51  51  51  22  22  22  22  28  36  32  32  32  32  36  36  50  50  58  
36  32  36  42  50  50  28  28  22  22  22  28  28  36  36  36  45  10  10  10  14  22  41  20  10  10  10   0  10  10  10  10  30  40  40  14  10  10  14  22  32  32  41  41  41  28  28  20  20  22  28  36  36  36  30  32  32  42  42  50  
42  30  32  36  42  42  36  36  28  20  20  22  22  28  28  28  36  14  14  14  10  14  32  30  20  20  20  10   0   0   0   0  20  30  30  22  14  14  10  14  22  22  32  32  32  36  36  22  22  20  22  42  42  42  32  30  30  36  36  42  
42  30  32  36  42  42  36  36  28  20  20  22  22  28  28  28  36  14  14  14  10  14  32  30  20  20  20  10   0   0   0   0  20  30  30  22  14  14  10  14  22  22  32  32  32  36  36  22  22  20  22  42  42  42  32  30  30  36  36  42  
42  30  32  36  42  42  36  36  28  20  20  22  22  28  28  28  36  14  14  14  10  14  32  30  20  20  20  10   0   0   0   0  20  30  30  22  14  14  10  14  22  22  32  32  32  36  36  22  22  20  22  42  42  42  32  30  30  36  36  42  
42  30  32  36  42  42  36  36  28  20  20  22  22  28  28  28  36  14  14  14  10  14  32  30  20  20  20  10   0   0   0   0  20  30  30  22  14  14  10  14  22  22  32  32  32  36  36  22  22  20  22  42  42  42  32  30  30  36  36  42  
58  36  32  30  32  32  54  54  45  28  28  22  22  20  20  20  22  32  32  32  22  14  14  50  40  40  40  30  20  20  20  20   0  10  10  41  32  32  22  14  10  10  14  14  14  54  54  36  36  28  22  58  58  58  42  36  36  30  30  32  
67  42  36  32  30  30  63  63  54  36  36  28  28  22  22  22  20  41  41  41  32  22  10  60  50  50  50  40  30  30  30  30  10   0   0  51  41  41  32  22  14  14  10  10  10  63  63  45  45  36  28  67  67  67  50  42  42  32  32  30  
67  42  36  32  30  30  63  63  54  36  36  28  28  22  22  22  20  41  41  41  32  22  10  60  50  50  50  40  30  30  30  30  10   0   0  51  41  41  32  22  14  14  10  10  10  63  63  45  45  36  28  67  67  67  50  42  42  32  32  30  
41  45  50  57  64  64  32  32  30  36  36  42  42  50  50  50  58  22  22  22  28  36  54  14  10  10  10  14  22  22  22  22  41  51  51   0  10  10  20  30  40  40  50  50  50  14  14  14  14  22  32  22  22  22  22  28  28  45  45  54  
45  41  45  50  57  57  36  36  32  32  32  36  36  42  42  42  50  20  20  20  22  28  45  22  14  14  14  10  14  14  14  14  32  41  41  10   0   0  10  20  30  30  40  40  40  22  22  10  10  14  22  28  28  28  20  22  22  36  36  45  
45  41  45  50  57  57  36  36  32  32  32  36  36  42  42  42  50  20  20  20  22  28  45  22  14  14  14  10  14  14  14  14  32  41  41  10   0   0  10  20  30  30  40  40  40  22  22  10  10  14  22  28  28  28  20  22  22  36  36  45  
50  40  41  45  50  50  42  42  36  30  30  32  32  36  36  36  42  22  22  22  20  22  36  32  22  22  22  14  10  10  10  10  22  32  32  20  10  10   0  10  20  20  30  30  30  32  32  14  14  10  14  36  36  36  22  20  20  28  28  36  
57  41  40  41  45  45  50  50  42  32  32  30  30  32  32  32  36  28  28  28  22  20  28  41  32  32  32  22  14  14  14  14  14  22  22  30  20  20  10   0  10  10  20  20  20  41  41  22  22  14  10  45  45  45  28  22  22  22  22  28  
64  45  41  40  41  41  58  58  50  36  36  32  32  30  30  30  32  36  36  36  28  22  22  51  41  41  41  32  22  22  22  22  10  14  14  40  30  30  20  10   0   0  10  10  10  51  51  32  32  22  14  54  54  54  36  28  28  20  20  22  
64  45  41  40  41  41  58  58  50  36  36  32  32  30  30  30  32  36  36  36  28  22  22  51  41  41  41  32  22  22  22  22  10  14  14  40  30  30  20  10   0   0  10  10  10  51  51  32  32  22  14  54  54  54  36  28  28  20  20  22  
72  50  45  41  40  40  67  67  58  42  42  36  36  32  32  32  30  45  45  45  36  28  20  61  51  51  51  41  32  32  32  32  14  10  10  50  40  40  30  20  10  10   0   0   0  61  61  41  41  32  22  63  63  63  45  36  36  22  22  20  
72  50  45  41  40  40  67  67  58  42  42  36  36  32  32  32  30  45  45  45  36  28  20  61  51  51  51  41  32  32  32  32  14  10  10  50  40  40  30  20  10  10   0   0   0  61  61  41  41  32  22  63  63  63  45  36  36  22  22  20  
72  50  45  41  40  40  67  67  58  42  42  36  36  32  32  32  30  45  45  45  36  28  20  61  51  51  51  41  32  32  32  32  14  10  10  50  40  40  30  20  10  10   0   0   0  61  61  41  41  32  22  63  63  63  45  36  36  22  22  20  
50  58  64  71  78  78  40  40  41  50  50  57  57  64  64  64  72  36  36  36  42  50  67  20  22  22  22  28  36  36  36  36  54  63  63  14  22  22  32  41  51  51  61  61  61   0   0  20  20  30  40  10  10  10  22  32  32  51  51  61  
50  58  64  71  78  78  40  40  41  50  50  57  57  64  64  64  72  36  36  36  42  50  67  20  22  22  22  28  36  36  36  36  54  63  63  14  22  22  32  41  51  51  61  61  61   0   0  20  20  30  40  10  10  10  22  32  32  51  51  61  
54  51  54  58  64  64  45  45  41  41  41  45  45  50  50  50  57  30  30  30  32  36  50  28  22  22  22  20  22  22  22  22  36  45  45  14  10  10  14  22  32  32  41  41  41  20  20   0   0  10  20  22  22  22  10  14  14  32  32  41  
54  51  54  58  64  64  45  45  41  41  41  45  45  50  50  50  57  30  30  30  32  36  50  28  22  22  22  20  22  22  22  22  36  45  45  14  10  10  14  22  32  32  41  41  41  20  20   0   0  10  20  22  22  22  10  14  14  32  32  41  
58  50  51  54  58  58  50  50  45  40  40  41  41  45  45  45  50  32  32  32  30  32  42  36  28  28  28  22  20  20  20  20  28  36  36  22  14  14  10  14  22  22  32  32  32  30  30  10  10   0  10  32  32  32  14  10  10  22  22  32  
64  51  50  51  54  54  57  57  50  41  41  40  40  41  41  41  45  36  36  36  32  30  36  45  36  36  36  28  22  22  22  22  22  28  28  32  22  22  14  10  14  14  22  22  22  40  40  20  20  10   0  41  41  41  22  14  14  14  14  22  
60  67  72  78  85  85  50  50  51  58  58  64  64  71  71  71  78  45  45  45  50  57  72  30  32  32  32  36  42  42  42  42  58  67  67  22  28  28  36  45  54  54  63  63  63  10  10  22  22  32  41   0   0   0  20  30  30  50  50  60  
60  67  72  78  85  85  50  50  51  58  58  64  64  71  71  71  78  45  45  45  50  57  72  30  32  32  32  36  42  42  42  42  58  67  67  22  28  28  36  45  54  54  63  63  63  10  10  22  22  32  41   0   0   0  20  30  30  50  50  60  
60  67  72  78  85  85  50  50  51  58  58  64  64  71  71  71  78  45  45  45  50  57  72  30  32  32  32  36  42  42  42  42  58  67  67  22  28  28  36  45  54  54  63  63  63  10  10  22  22  32  41   0   0   0  20  30  30  50  50  60  
63  61  63  67  72  72  54  54  51  51  51  54  54  58  58  58  64  40  40  40  41  45  57  36  32  32  32  30  32  32  32  32  42  50  50  22  20  20  22  28  36  36  45  45  45  22  22  10  10  14  22  20  20  20   0  10  10  30  30  40  
67  60  61  63  67  67  58  58  54  50  50  51  51  54  54  54  58  41  41  41  40  41  50  42  36  36  36  32  30  30  30  30  36  42  42  28  22  22  20  22  28  28  36  36  36  32  32  14  14  10  14  30  30  30  10   0   0  20  20  30  
67  60  61  63  67  67  58  58  54  50  50  51  51  54  54  54  58  41  41  41  40  41  50  42  36  36  36  32  30  30  30  30  36  42  42  28  22  22  20  22  28  28  36  36  36  32  32  14  14  10  14  30  30  30  10   0   0  20  20  30  
78  63  61  60  61  61  71  71  64  54  54  51  51  50  50  50  51  50  50  50  45  41  41  58  50  50  50  42  36  36  36  36  30  32  32  45  36  36  28  22  20  20  22  22  22  51  51  32  32  22  14  50  50  50  30  20  20   0   0  10  
78  63  61  60  61  61  71  71  64  54  54  51  51  50  50  50  51  50  50  50  45  41  41  58  50  50  50  42  36  36  36  36  30  32  32  45  36  36  28  22  20  20  22  22  22  51  51  32  32  22  14  50  50  50  30  20  20   0   0  10  
85  67  63  61  60  60  78  78  71  58  58  54  54  51  51  51  50  57  57  57  50  45  40  67  58  58  58  50  42  42  42  42  32  30  30  54  45  45  36  28  22  22  20  20  20  61  61  41  41  32  22  60  60  60  40  30  30  10  10   0  

 0  29  43  43  49  35  35  35  27  35  35  20  28  41  35  43  27  37  43  42  35  35  29  29  49  42  35  35  28  35  42  41  29  25  34  43  35  42  35  27  26  35  37  27  35  35  42  27  43  58  35  43  35  37  33  33  18  28  44  37  
 0   0  44  44  42  35  35  36  35  35  35  35  35  51  35  35  35  35  35  35  35  35  35  29  50  45  35  35  44  35  35  35  29  35  29  51  35  35  25  35  45  35  25  38  35  25  35  26  25  51  35  26  35  35  35  35  26  26  44  25  
 0   0   0  18  38  26  35  32  49  36  33  30  35  34  36  18  43  33  18  43  25  25  52  35  18  35  38  36  26  35  37  17  35  37  36  31  44  49  36  44  35  40  39  24  44  41  35  56  28  28  45  36  34  46  34  30  43  59  26  45  
 0   0   0   0  27  35  35  44  43  43  45  61  17  38  39  22  42  35  44  26  35  36  39  34  14  35  30  35  25  35  18  31  35  31  35  40  45  27  43  34  31  36  36  25  35  39  32  52  37  16  31  40  31  35  39  44  68  35  34  47  
 0   0   0   0   0  35  35  14  41  37  44  52  26  19  35  27  43  35  36  28  37  44  43  41  30  25  24  33  44  35  26  27  41  34  41  19  44  35  45  36  25  44  45  52  37  45  44  34  46   0  35  18  35  33  37  44  34  17  44  45  
 0   0   0   0   0   0  32  35  35  35  35  39  35  35  38  35  35  31  35  39  26  35  41  38  36  35  26  35  35  35  31  38  35  32  41  35  44  44  35  47  38  35  35  35  39  38  35  35  35  35  35  35  35  44  31  26  26  48  38  35  
 0   0   0   0   0   0   0  35  35  35  35  35  35  35  38  35  35  35  35  35  35  35  32  38  32  35  35  35  35  35  35  38  35  32  32  35  35  35  35  38  38  35  35  35  35  38  35  35  35  35  35  35  35  35  35  35  35  35  38  35  
 0   0   0   0   0   0   0   0  37  35  37  27  29  25  43  25  33  29  25  41  37  31  35  29  44  25  45  29  44  33  33  25  35  37  23  21  35  33  45  39  25  43  57  48  47  51  35  30  45  23  45  32  39  27  37  39  32  30  44  57  
 0   0   0   0   0   0   0   0   0  33  35  31  35  35  35  43  27  35  43  37  37  35  27  35  43  35  33  37  35  35  31  43  35  31  35  39  35  31  35  33  35  31  31  37  37  39  35  23  43  41  35  43  35  33  37  31  27  39  35  35  
 0   0   0   0   0   0   0   0   0   0  35  36  29  34  41  35  35  29  27  27  32  41  35  29  35  35  38  42  35  35  25  36  35  44  35  39  35  26  36  43  35  44  38  33  34  39  43  31  37  43  35  42  48  31  34  31  33  39  35  35  
 0   0   0   0   0   0   0   0   0   0   0  27  45  36  33  35  38  33  26  44  37  26  35  36  35  35  42  37  36  37  42  35  35  41  39  35  25  35  35  42  35  30  32  34  35  35  26  35  25  43  35  35  38  35  35  26  35  46  35  33  
 0   0   0   0   0   0   0   0   0   0   0   0  44  35  29  34  29  47  17  64  32  19  27  42  39  51  55  30  30  35  67  33  35  27  30  31  25  62  36  27  28  29  23  36  42  48  41  30  43  72  45  36  37  42  40  30   5  30  43  44  
 0   0   0   0   0   0   0   0   0   0   0   0   0  34  41  35  34  29  44  27  35  42  35  28  35  42  26  35  27  35  19  35  35  33  42  35  45  28  43  32  28  50  42  34  35  35  51  35  45  34  35  41  40  29  35  44  42  19  50  43  
 0   0   0   0   0   0   0   0   0   0   0   0   0   0  32  36  34  35  36  35  34  35  39  40  33  25  31  36  34  35  35  31  41  40  41  19  36  36  46  35  29  34  46  40  36  41  39  35  47  19  39  31  33  35  32  35  35  35  35  41  
 0   0   0   0   0   0   0   0   0   0   0   0   0   0   0  33  38  41  33  42  36  29  42  34  42  35  35  30  36  37  41  33  35  35  40  35  35  40  34  25  36  32  28  33  34  28  39  34  35  35  35  25  32  42  30  35  32  37  33  28  
 0   0   0   0   0   0   0   0   0   0   0   0   0   0   0   0  43  35  15  45  36  25  43  35  27  35  46  34  35  35  35  18  35  42  25  40  35  34  34  43  35  36  36  35  44  45  35  43  27  32  45  28  41  35  34  35  43  45  35  45  
 0   0   0   0   0   0   0   0   0   0   0   0   0   0   0   0   0  35  43  34  35  35  27  34  43  39  36  35  29  33  35  43  35  28  37  35  36  35  35  28  35  33  38  40  35  35  35  28  40  48  35  44  32  34  39  35  28  29  34  38  
 0   0   0   0   0   0   0   0   0   0   0   0   0   0   0   0   0   0  35  33  37  41  33  29  39  35  35  37  35  35  23  37  35  41  39  33  35  29  35  39  37  43  39  37  39  35  35  35  35  33  35  41  41  27  33  37  43  39  33  33  
 0   0   0   0   0   0   0   0   0   0   0   0   0   0   0   0   0   0   0  54  36  16  43  35  27  35  55  34  35  35  44  18  35  51  25  35  26  34  34  52  35  35  36  35  44  45  34  43  18  44  45  28  44  35  34  26  35  54  35  45  
 0   0   0   0   0   0   0   0   0   0   0   0   0   0   0   0   0   0   0   0  33  60  35  29  31  28  17  37  41  35  17  45  35  32  38  35  44  22  35  31  42  50  41  33  19  25  37  36  44  21  25  42  41  30  37  44  49  19  27  26  
 0   0   0   0   0   0   0   0   0   0   0   0   0   0   0   0   0   0   0   0   0  35  44  26  35  44  28  36  35  35  37  35  35  37  42  35  44  45  36  44  35  32  35  33  34  35  35  26  27  45  35  35  34  46  34  26  26  44  44  35  
 0   0   0   0   0   0   0   0   0   0   0   0   0   0   0   0   0   0   0   0   0   0  35  41  35  26  54  35  35  35  42  25  35  38  25  35  26  24  43  38  35  20  38  35  45  45  26  35  17  44  45  29  29  41  35  26  37  63  43  53  
 0   0   0   0   0   0   0   0   0   0   0   0   0   0   0   0   0   0   0   0   0   0   0  38  36  35  48  35  35  35  35  52  35  22  25  33  26  26  35  21  36  35  33  37  35  42  31  27  43  41  31  47  35  24  41  46  38  26  36  37  
 0   0   0   0   0   0   0   0   0   0   0   0   0   0   0   0   0   0   0   0   0   0   0   0  44  44  39  31  34  35  29  36  29  45  32  41  36  29  35  38  32  41  42  28  35  32  35  26  27  51  31  41  40  29  35  35  45  35  41  35  
 0   0   0   0   0   0   0   0   0   0   0   0   0   0   0   0   0   0   0   0   0   0   0   0   0  35  39  35  26  35  39  34  41  36  30  37  35  35  35  46  34  35  35  32  31  42  31  52  27  21  31  48  35  35  43  27  52  40  29  39  
 0   0   0   0   0   0   0   0   0   0   0   0   0   0   0   0   0   0   0   0   0   0   0   0   0   0  35  35  46  35  28  35  35  35  24  25  35  19  45  35  32  35  54  31  35  45  28  44  49   5  35  35  35  35  31  35  42  55  19  45  
 0   0   0   0   0   0   0   0   0   0   0   0   0   0   0   0   0   0   0   0   0   0   0   0   0   0   0  37  34  37  26  36  35  31  56  35  53  44  35  38  39  46  32  35  27  21  48  36  43  25  33  31  37  41  33  35  23  27  34  20  
 0   0   0   0   0   0   0   0   0   0   0   0   0   0   0   0   0   0   0   0   0   0   0   0   0   0   0   0  35  35  41  39  35  33  33  31  35  38  34  35  35  38  39  37  36  31  35  39  34  34  31  35  36  33  36  39  39  31  35  35  
 0   0   0   0   0   0   0   0   0   0   0   0   0   0   0   0   0   0   0   0   0   0   0   0   0   0   0   0   0  35  42  35  35  36  46  35  36  42  35  36  28  35  36  29  35  35  42  45  32  47  35  45  34  34  39  35  38  33  32  36  
 0   0   0   0   0   0   0   0   0   0   0   0   0   0   0   0   0   0   0   0   0   0   0   0   0   0   0   0   0   0  35  35  35  35  33  35  35  35  35  35  35  33  37  37  35  35  35  35  35  35  35  35  33  35  35  35  35  33  35  37  
 0   0   0   0   0   0   0   0   0   0   0   0   0   0   0   0   0   0   0   0   0   0   0   0   0   0   0   0   0   0   0  35  35  34  30  39  44  10  43  34  42  48  37  35  39  39  37  31  44  19  35  41  41  29  31  40  56  41  36  43  
 0   0   0   0   0   0   0   0   0   0   0   0   0   0   0   0   0   0   0   0   0   0   0   0   0   0   0   0   0   0   0   0  35  49  26  37  35  35  35  40  34  35  36  33  45  38  39  43  26  30  53  22  35  37  29  33  37  45  34  43  
 0   0   0   0   0   0   0   0   0   0   0   0   0   0   0   0   0   0   0   0   0   0   0   0   0   0   0   0   0   0   0   0   0  35  29  41  35  35  35  35  35  35  35  29  35  35  35  35  35  41  35  35  35  35  35  35  35  35  35  35  
 0   0   0   0   0   0   0   0   0   0   0   0   0   0   0   0   0   0   0   0   0   0   0   0   0   0   0   0   0   0   0   0   0   0  32  33  43  45  35   9  32  44  35  34  35  38  40  31  52  34  31  42  30  43  37  46  19  22  40  41  
 0   0   0   0   0   0   0   0   0   0   0   0   0   0   0   0   0   0   0   0   0   0   0   0   0   0   0   0   0   0   0   0   0   0   0  51  26  19  35  31  43  31  39  25  45  48  28  35  39  32  45  43  33  28  29  34  49  45  33  49  
 0   0   0   0   0   0   0   0   0   0   0   0   0   0   0   0   0   0   0   0   0   0   0   0   0   0   0   0   0   0   0   0   0   0   0   0  35  39  45  31  27  39  47  43  35  41  35  39  45  12  35  27  30  33  37  49  37  31  33  43  
 0   0   0   0   0   0   0   0   0   0   0   0   0   0   0   0   0   0   0   0   0   0   0   0   0   0   0   0   0   0   0   0   0   0   0   0   0  26  35  35  35  26  34  36  35  35  26  35  25  43  35  35  36  26  35  35  44  35  35  35  
 0   0   0   0   0   0   0   0   0   0   0   0   0   0   0   0   0   0   0   0   0   0   0   0   0   0   0   0   0   0   0   0   0   0   0   0   0   0  42  36  42  38  46  35  34  39  28  31  25  29  35  41  42  20  34  40  65  46  36  43  
 0   0   0   0   0   0   0   0   0   0   0   0   0   0   0   0   0   0   0   0   0   0   0   0   0   0   0   0   0   0   0   0   0   0   0   0   0   0   0  35  45  36  25  35  34  25  35  35  24  46  35  35  36  35  34  35  27  35  27  17  
 0   0   0   0   0   0   0   0   0   0   0   0   0   0   0   0   0   0   0   0   0   0   0   0   0   0   0   0   0   0   0   0   0   0   0   0   0   0   0   0  32  44  33  33  33  28  44  30  52  36  35  36  29  35  33  57  29  13  33  34  
 0   0   0   0   0   0   0   0   0   0   0   0   0   0   0   0   0   0   0   0   0   0   0   0   0   0   0   0   0   0   0   0   0   0   0   0   0   0   0   0   0  35  47  33  35  46  38  35  45  34  31  39  35  37  37  33  26  28  41  51  
 0   0   0   0   0   0   0   0   0   0   0   0   0   0   0   0   0   0   0   0   0   0   0   0   0   0   0   0   0   0   0   0   0   0   0   0   0   0   0   0   0   0  27  37  36  39  18  31  27  35  35  29  18  41  36  22  37  46  35  37  
 0   0   0   0   0   0   0   0   0   0   0   0   0   0   0   0   0   0   0   0   0   0   0   0   0   0   0   0   0   0   0   0   0   0   0   0   0   0   0   0   0   0   0  36  35  29  35  31  32  43  35  28  32  39  37  33  31  32  33  21  
 0   0   0   0   0   0   0   0   0   0   0   0   0   0   0   0   0   0   0   0   0   0   0   0   0   0   0   0   0   0   0   0   0   0   0   0   0   0   0   0   0   0   0   0  33  35  35  44  40  42  35  44  36  39  27  33  42  50  28  35  
 0   0   0   0   0   0   0   0   0   0   0   0   0   0   0   0   0   0   0   0   0   0   0   0   0   0   0   0   0   0   0   0   0   0   0   0   0   0   0   0   0   0   0   0   0  25  35  35  34  38  25  35  36  37  36  35  35  21  35  25  
 0   0   0   0   0   0   0   0   0   0   0   0   0   0   0   0   0   0   0   0   0   0   0   0   0   0   0   0   0   0   0   0   0   0   0   0   0   0   0   0   0   0   0   0   0   0  39  39  25  38  29  31  35  35  31  39  35  21  32  11  
 0   0   0   0   0   0   0   0   0   0   0   0   0   0   0   0   0   0   0   0   0   0   0   0   0   0   0   0   0   0   0   0   0   0   0   0   0   0   0   0   0   0   0   0   0   0   0  35  26  29  31  39  27  35  39  26  50  51  28  39  
 0   0   0   0   0   0   0   0   0   0   0   0   0   0   0   0   0   0   0   0   0   0   0   0   0   0   0   0   0   0   0   0   0   0   0   0   0   0   0   0   0   0   0   0   0   0   0   0  34  52  35  33  35  36  35  31  17  30  54  34  
 0   0   0   0   0   0   0   0   0   0   0   0   0   0   0   0   0   0   0   0   0   0   0   0   0   0   0   0   0   0   0   0   0   0   0   0   0   0   0   0   0   0   0   0   0   0   0   0   0  60  35  26  37  35  38  26  43  49  44  25  
 0   0   0   0   0   0   0   0   0   0   0   0   0   0   0   0   0   0   0   0   0   0   0   0   0   0   0   0   0   0   0   0   0   0   0   0   0   0   0   0   0   0   0   0   0   0   0   0   0   0  35  28  22  31  36  46  60  37  17  43  
 0   0   0   0   0   0   0   0   0   0   0   0   0   0   0   0   0   0   0   0   0   0   0   0   0   0   0   0   0   0   0   0   0   0   0   0   0   0   0   0   0   0   0   0   0   0   0   0   0   0   0  39  35  35  39  35  39  25  35  29  
 0   0   0   0   0   0   0   0   0   0   0   0   0   0   0   0   0   0   0   0   0   0   0   0   0   0   0   0   0   0   0   0   0   0   0   0   0   0   0   0   0   0   0   0   0   0   0   0   0   0   0   0  29  42  31  43  27  26  45  30  
 0   0   0   0   0   0   0   0   0   0   0   0   0   0   0   0   0   0   0   0   0   0   0   0   0   0   0   0   0   0   0   0   0   0   0   0   0   0   0   0   0   0   0   0   0   0   0   0   0   0   0   0   0  41  36  35  37  33  35  37  
 0   0   0   0   0   0   0   0   0   0   0   0   0   0   0   0   0   0   0   0   0   0   0   0   0   0   0   0   0   0   0   0   0   0   0   0   0   0   0   0   0   0   0   0   0   0   0   0   0   0   0   0   0   0  39  46  53  26  32  34  
 0   0   0   0   0   0   0   0   0   0   0   0   0   0   0   0   0   0   0   0   0   0   0   0   0   0   0   0   0   0   0   0   0   0   0   0   0   0   0   0   0   0   0   0   0   0   0   0   0   0   0   0   0   0   0  33  33  43  37  33  
 0   0   0   0   0   0   0   0   0   0   0   0   0   0   0   0   0   0   0   0   0   0   0   0   0   0   0   0   0   0   0   0   0   0   0   0   0   0   0   0   0   0   0   0   0   0   0   0   0   0   0   0   0   0   0   0  24  57  37  37  
 0   0   0   0   0   0   0   0   0   0   0   0   0   0   0   0   0   0   0   0   0   0   0   0   0   0   0   0   0   0   0   0   0   0   0   0   0   0   0   0   0   0   0   0   0   0   0   0   0   0   0   0   0   0   0   0   0  28  46  28  
 0   0   0   0   0   0   0   0   0   0   0   0   0   0   0   0   0   0   0   0   0   0   0   0   0   0   0   0   0   0   0   0   0   0   0   0   0   0   0   0   0   0   0   0   0   0   0   0   0   0   0   0   0   0   0   0   0   0  51  27  
 0   0   0   0   0   0   0   0   0   0   0   0   0   0   0   0   0   0   0   0   0   0   0   0   0   0   0   0   0   0   0   0   0   0   0   0   0   0   0   0   0   0   0   0   0   0   0   0   0   0   0   0   0   0   0   0   0   0   0  26  
 0   0   0   0   0   0   0   0   0   0   0   0   0   0   0   0   0   0   0   0   0   0   0   0   0   0   0   0   0   0   0   0   0   0   0   0   0   0   0   0   0   0   0   0   0   0   0   0   0   0   0   0   0   0   0   0   0   0   0   0  
